15 3 
4176	4176	4176	
144	745	747	
27	890	905	
69	64	69	
65	171	183	
773	681	719	
417	591	636	
795	84	91	
89	567	583	
876	525	566	
463	35	37	
303	219	225	
202	202	221	
131	12	13	
380	216	229	
751	566	617	
